
******************************************************************************
This program contains Ipopt, a library for large-scale nonlinear optimization.
 Ipopt is released as open source code under the Eclipse Public License (EPL).
         For more information visit http://projects.coin-or.org/Ipopt
******************************************************************************

This is Ipopt version 3.12.6, running with linear solver ma57.

Number of nonzeros in equality constraint Jacobian...:    80004
Number of nonzeros in inequality constraint Jacobian.:        0
Number of nonzeros in Lagrangian Hessian.............:    30004

Total number of variables............................:    25004
                     variables with only lower bounds:    10000
                variables with lower and upper bounds:        0
                     variables with only upper bounds:        0
Total number of equality constraints.................:    20004
Total number of inequality constraints...............:        0
        inequality constraints with only lower bounds:        0
   inequality constraints with lower and upper bounds:        0
        inequality constraints with only upper bounds:        0

iter    objective    inf_pr   inf_du lg(mu)  ||d||  lg(rg) alpha_du alpha_pr  ls
   0  4.9999900e-01 6.35e+02 6.23e-01  -1.0 0.00e+00    -  0.00e+00 0.00e+00   0
   1  6.4609265e-01 6.34e+02 1.10e+00  -1.0 4.07e+01    -  1.02e-03 2.03e-03f  1
   2  8.3518538e-01 6.33e+02 1.10e+00  -1.0 3.84e+01    -  1.72e-03 1.70e-03f  1
   3  1.1115745e+00 6.31e+02 1.09e+00  -1.0 1.21e+01    -  1.88e-03 2.04e-03f  1
   4  1.4343884e+00 6.30e+02 1.09e+00  -1.0 3.54e+01    -  1.87e-03 2.11e-03f  1
   5  1.8746755e+00 6.28e+02 1.09e+00  -1.0 1.22e+01    -  2.76e-03 2.63e-03f  1
   6  2.4313808e+00 6.26e+02 1.09e+00  -1.0 3.02e+01    -  2.90e-03 3.12e-03f  1
   7  3.3160209e+00 6.23e+02 1.64e+00  -1.0 3.90e+01    -  3.29e-03 4.80e-03f  1
   8  4.8783942e+00 6.19e+02 2.15e+00  -1.0 1.19e+01   0.0 5.31e-03 6.67e-03f  1
   9  8.2888824e+00 6.10e+02 2.61e+00  -1.0 1.60e+01  -0.5 8.82e-03 1.47e-02f  1
iter    objective    inf_pr   inf_du lg(mu)  ||d||  lg(rg) alpha_du alpha_pr  ls
  10  1.9806954e+01 5.91e+02 1.04e+01  -1.0 1.15e+01  -0.1 1.05e-02 3.12e-02f  1
  11  4.7247045e+01 5.68e+02 1.05e+01  -1.0 1.07e+01   0.4 1.88e-02 3.94e-02f  1
  12  1.2112070e+02 5.16e+02 9.77e+00  -1.0 1.02e+01  -0.1 3.24e-02 9.05e-02f  1
  13  6.2335770e+02 3.74e+02 3.15e+01  -1.0 8.31e+00   0.3 5.29e-02 2.76e-01h  1
  14  6.2271158e+02 3.57e+02 2.56e+01  -1.0 1.08e+01  -0.2 3.09e-01 4.49e-02h  1
  15  1.6525007e+03 1.63e+02 1.68e+01  -1.0 5.72e+00   0.3 4.53e-01 5.42e-01h  1
  16  1.4995785e+03 1.55e+02 3.85e+01  -1.0 1.21e+01  -0.2 5.80e-01 5.32e-02f  1
  17  1.7218106e+03 9.22e+01 7.04e+01  -1.0 3.10e+00   0.2 1.00e+00 4.05e-01h  1
  18  1.5158913e+03 8.65e+01 1.01e+02  -1.0 1.98e+01  -0.3 3.45e-01 6.09e-02f  1
  19  1.5189511e+03 6.67e+01 1.93e+02  -1.0 2.39e+00   0.2 1.00e+00 2.30e-01h  1
iter    objective    inf_pr   inf_du lg(mu)  ||d||  lg(rg) alpha_du alpha_pr  ls
  20  1.3668201e+03 6.37e+01 2.09e+02  -1.0 2.90e+01  -0.3 1.68e-01 4.45e-02f  1
  21  1.3418311e+03 4.98e+01 3.25e+02  -1.0 2.34e+00   0.1 1.00e+00 2.18e-01h  1
  22  1.4460292e+03 3.63e+00 4.21e+01  -1.0 1.06e+00   0.5 1.00e+00 9.27e-01h  1
  23  1.3753606e+03 2.88e+00 2.84e+03  -1.0 1.97e+00   0.1 1.00e+00 2.06e-01f  1
  24  1.3409460e+03 1.52e+00 3.84e+03  -1.0 5.86e-01   0.5 1.00e+00 4.71e-01h  1
  25  1.2747954e+03 1.18e+00 9.45e+03  -1.0 2.61e+00   0.0 1.00e+00 2.24e-01f  1
  26  1.2235242e+03 4.62e-01 7.88e+03  -1.0 7.36e-01   0.4 1.00e+00 6.10e-01h  1
  27  1.1830873e+03 3.97e-01 3.03e+04  -1.0 2.67e+00  -0.0 1.00e+00 1.41e-01f  1
  28  1.1398898e+03 1.61e-01 2.52e+04  -1.0 6.49e-01   0.4 1.00e+00 5.94e-01h  1
  29  1.0580546e+03 1.20e-01 7.70e+04  -1.0 3.15e+00  -0.1 1.00e+00 2.56e-01f  1
Reallocating memory for MA57: lfact (1128682)
iter    objective    inf_pr   inf_du lg(mu)  ||d||  lg(rg) alpha_du alpha_pr  ls
  30  1.0269143e+03 7.65e-02 1.16e+05  -1.0 7.82e-01   0.3 1.00e+00 3.62e-01h  1
Reallocating memory for MA57: lfact (2474318)
  31  9.6934346e+02 6.27e-02 2.30e+05  -1.0 4.32e+00  -0.1 1.00e+00 1.80e-01f  1
Reallocating memory for MA57: lfact (2845152)
  32  9.3234690e+02 3.22e-02 2.22e+05  -1.0 9.47e-01   0.3 1.00e+00 4.87e-01h  1
  33  8.5938826e+02 2.52e-02 5.05e+05  -1.0 4.10e+00  -0.2 1.00e+00 2.17e-01f  1
  34  8.2593433e+02 1.53e-02 6.79e+05  -1.0 9.32e-01   0.2 1.00e+00 3.93e-01h  1
  35  7.5803231e+02 1.27e-02 1.69e+06  -1.0 7.25e+00  -0.2 1.00e+00 1.67e-01f  1
  36  7.3027065e+02 8.73e-03 2.70e+06  -1.0 1.31e+00   0.2 1.00e+00 3.14e-01h  1
  37  6.7293077e+02 7.48e-03 6.13e+06  -1.0 8.14e+00  -0.3 8.31e-01 1.43e-01f  1
  38  6.3584952e+02 3.60e-03 8.49e+06  -1.0 1.35e+00   0.1 1.00e+00 5.18e-01h  1
  39  6.3000886e+02 3.53e-03 4.63e+08  -1.0 1.42e+01  -0.3 6.00e-01 1.90e-02f  2
iter    objective    inf_pr   inf_du lg(mu)  ||d||  lg(rg) alpha_du alpha_pr  ls
  40  6.2999818e+02 3.53e-03 4.43e+08  -1.0 1.16e+00   0.1 1.17e-03 1.94e-04f  4
  41  6.2507002e+02 3.46e-03 2.19e+09  -1.0 1.23e+01  -0.4 7.63e-01 1.90e-02h  1
  42  5.6615388e+02 3.62e-08 2.02e+08  -1.0 1.06e+00   0.0 9.07e-01 1.00e+00f  1
  43  5.6577922e+02 3.56e-08 3.93e+08  -1.0 4.52e-01   0.5 1.18e-01 1.81e-02h  1
  44  5.3625819e+02 1.22e-06 9.92e+07  -1.0 1.63e+00  -0.0 7.48e-01 4.36e-01f  1
  45  5.3563875e+02 1.19e-06 1.07e+09  -1.0 5.47e-01   0.4 4.46e-01 2.79e-02h  1
  46  5.1127364e+02 6.77e-07 1.91e+08  -1.0 2.12e+00  -0.1 8.22e-01 3.26e-01f  1
  47  5.1031077e+02 6.45e-07 2.25e+09  -1.0 5.87e-01   0.4 5.20e-01 4.74e-02h  1
  48  4.8564271e+02 3.78e-07 7.81e+07  -1.0 2.82e+00  -0.1 9.65e-01 3.95e-01f  1
  49  4.7681214e+02 2.07e-07 5.64e+07  -1.0 8.81e-01   0.3 2.78e-01 4.80e-01f  1
iter    objective    inf_pr   inf_du lg(mu)  ||d||  lg(rg) alpha_du alpha_pr  ls
  50  4.7681214e+02 2.07e-07 4.90e+07  -1.0 1.50e+02  -0.2 7.76e-11 5.05e-11f  2
  51  4.6817474e+02 6.99e-06 4.88e+07  -1.0 1.04e+00   0.3 3.85e-03 4.66e-01f  1
  52  4.6521148e+02 8.62e-04 4.88e+07  -1.0 3.35e+00  -0.2 4.54e-04 5.41e-02f  1
  53  4.6135858e+02 4.32e-03 2.27e+06  -1.0 8.37e-01   0.2 1.00e+00 2.22e-01f  1
  54  4.5044129e+02 5.89e-03 1.85e+06  -1.0 2.71e+00  -0.3 3.67e-01 1.86e-01f  1
  55  4.5025590e+02 5.81e-03 7.07e+08  -1.0 6.77e-01   0.2 1.65e-03 1.35e-02h  1
  56  4.3253925e+02 6.96e-03 7.06e+08  -1.0 4.42e+00  -0.3 1.40e-03 2.57e-01f  1
  57  4.3220467e+02 6.82e-03 1.14e+09  -1.0 9.71e-01   0.1 2.00e-01 2.08e-02h  1
  58  4.2303018e+02 6.89e-03 1.14e+09  -1.0 7.38e+00  -0.4 3.23e-05 1.22e-01f  1
  59  4.2295462e+02 2.80e-02 1.14e+09  -1.0 1.38e+01   0.1 9.40e-04 6.28e-03f  2
iter    objective    inf_pr   inf_du lg(mu)  ||d||  lg(rg) alpha_du alpha_pr  ls
  60  4.2022739e+02 1.41e-01 1.13e+09  -1.0 1.49e+01  -0.4 7.19e-03 2.94e-02f  1
  61  4.1948546e+02 3.72e-01 1.07e+09  -1.0 1.28e+01  -0.0 5.33e-02 6.42e-02f  3
  62  4.1950174e+02 4.08e-01 6.54e+08  -1.0 1.11e+01   0.4 3.87e-01 1.14e-02h  4
  63  4.1916612e+02 5.20e-01 5.94e+08  -1.0 1.09e+01  -0.1 1.33e-01 3.65e-02f  4
  64  4.1916959e+02 5.23e-01 5.93e+08  -1.0 1.00e+01   0.4 5.21e-01 1.24e-03h 10
  65  4.1916482e+02 5.25e-01 5.93e+08  -1.0 1.00e+01  -0.1 1.11e-02 5.83e-04f 10
  66  4.1916053e+02 5.24e-01 5.92e+08  -1.0 1.86e+00   0.3 7.76e-04 5.31e-04f  2
  67  4.1915502e+02 5.26e-01 5.92e+08  -1.0 9.98e+00  -0.2 2.30e-03 5.10e-04f 10
  68  4.1915520e+02 5.26e-01 5.92e+08  -1.0 9.96e+00   0.3 1.32e-02 9.06e-05f 14
  69  4.1915480e+02 5.26e-01 5.92e+08  -1.0 9.97e+00  -0.2 1.34e-04 2.78e-05f 14
iter    objective    inf_pr   inf_du lg(mu)  ||d||  lg(rg) alpha_du alpha_pr  ls
  70  4.1915483e+02 5.26e-01 5.92e+08  -1.0 1.00e+01   0.2 1.43e-06 2.14e-05f 16
  71  4.1453289e+02 9.64e-01 4.99e+08  -1.0 1.25e+01  -0.3 2.28e-02 1.56e-01w  1
  72  4.1448153e+02 9.53e-01 8.58e+08  -1.0 3.86e+00   0.2 3.73e-02 1.11e-02w  1
  73  4.1117345e+02 1.24e+00 8.48e+08  -1.0 6.96e+00  -0.3 1.17e-02 1.57e-01w  1
  74  4.1915482e+02 5.26e-01 5.92e+08  -1.0 4.21e+00   0.1 2.28e-02 2.98e-07f 19
  75  4.1474458e+02 7.71e-02 1.92e+08  -1.0 9.96e+00   0.5 1.91e-04 8.54e-01F  1
  76  4.1249028e+02 1.85e-01 1.91e+08  -1.0 2.44e+00   0.1 7.84e-03 2.64e-01f  1
  77  4.0972833e+02 2.03e-01 1.85e+08  -1.0 6.56e+00  -0.4 3.18e-02 1.01e-01f  1
  78  4.0971276e+02 2.03e-01 1.21e+08  -1.0 9.69e-01   0.0 3.46e-01 2.58e-03h  3
  79  4.0512025e+02 2.13e-01 1.20e+08  -1.0 1.42e+01  -0.5 5.30e-03 8.27e-02f  1
iter    objective    inf_pr   inf_du lg(mu)  ||d||  lg(rg) alpha_du alpha_pr  ls
  80  4.0223952e+02 2.36e-01 1.20e+08  -1.0 1.19e+00  -0.0 2.25e-04 2.85e-01f  1
  81  4.0230604e+02 2.36e-01 1.03e+09  -1.0 6.53e+01  -0.5 1.05e-04 8.32e-04f  1
  82  4.0163160e+02 2.34e-01 1.03e+09  -1.0 1.49e+00  -0.1 1.41e-03 8.70e-02f  1
  83  4.0002326e+02 2.17e-01 1.03e+09  -1.0 4.71e-01   0.3 1.43e-05 4.19e-01f  1
  84  3.9978874e+02 2.14e-01 1.02e+09  -1.0 1.06e+01  -0.1 6.41e-03 2.04e-02f  1
  85  4.0029925e+02 7.54e-01 9.99e+08  -1.0 1.02e+01   0.3 2.39e-02 2.62e-01f  1
  86  4.0001813e+02 7.43e-01 9.85e+08  -1.0 3.04e+00  -0.2 5.35e-02 1.42e-02h  1
  87  3.9867156e+02 7.41e-01 9.82e+08  -1.0 5.21e+02  -0.7 9.13e-04 2.39e-03f  2
  88  3.9854318e+02 7.51e-01 9.79e+08  -1.0 4.94e+00  -0.2 3.97e-03 7.86e-03f  4
  89  3.9854063e+02 7.56e-01 9.78e+08  -1.0 4.55e+00   0.2 3.99e-05 4.30e-03f  5
iter    objective    inf_pr   inf_du lg(mu)  ||d||  lg(rg) alpha_du alpha_pr  ls
  90  3.9853472e+02 7.56e-01 9.78e+08  -1.0 2.68e+01  -0.3 2.69e-06 2.67e-04f  8
  91  3.9853449e+02 7.56e-01 9.78e+08  -1.0 3.04e+01   0.1 2.32e-04 1.25e-04f  9
  92  3.9664791e+02 7.99e-01 9.71e+08  -1.0 2.89e+01  -0.3 1.90e-04 3.71e-02f  1
  93  3.9718471e+02 8.78e-01 8.98e+08  -1.0 1.98e+01   0.1 7.30e-03 7.56e-02f  2
  94  3.9683232e+02 8.74e-01 1.02e+09  -1.0 1.03e+01  -0.4 2.60e-02 5.37e-03h  4
  95  3.9680710e+02 8.72e-01 4.75e+09  -1.0 5.36e+00   0.0 2.38e-01 1.69e-03h  6
  96  3.9349740e+02 9.24e-01 4.37e+09  -1.0 1.67e+01  -0.4 7.88e-02 6.36e-02f  1
  97  3.9406333e+02 9.44e-01 4.24e+09  -1.0 1.45e+01  -0.0 2.95e-02 2.95e-02s 17
  98  3.9406168e+02 9.44e-01 4.24e+09  -1.0 1.36e+01  -0.5 7.05e-04 7.05e-04s 17
  99  3.9563527e+02 1.28e+00 3.76e+09  -1.0 1.36e+01  -0.1 1.14e-01 1.14e-01s 17
iter    objective    inf_pr   inf_du lg(mu)  ||d||  lg(rg) alpha_du alpha_pr  ls
 100  3.8918010e+02 1.54e+00 2.86e+09  -1.0 1.83e+01  -0.5 2.39e-01 0.00e+00S 17
 101  3.8735538e+02 2.37e+00 2.85e+09  -1.0 9.29e+00  -0.1 3.21e-03 3.34e-01f  1
 102  3.8496467e+02 2.43e+00 2.14e+09  -1.0 2.20e+00  -0.6 2.51e-01 1.82e-01f  1
 103  3.8354625e+02 2.27e+00 2.13e+09  -1.0 2.37e+00  -0.2 3.34e-03 7.01e-01f  1
 104  3.8130555e+02 1.87e+00 2.13e+09  -1.0 7.03e+00  -0.6 7.70e-05 2.49e-01f  1
 105  3.8025683e+02 4.92e-01 1.78e+09  -1.0 6.16e+00  -0.2 1.66e-01 1.00e+00f  1
 106  3.8019617e+02 3.87e-01 1.59e+09  -1.0 1.58e+00   0.2 1.02e-01 2.13e-01f  1
 107  3.7978904e+02 3.09e-01 1.59e+09  -1.0 1.20e+00  -0.3 4.28e-03 2.02e-01f  1
 108  3.7865204e+02 2.79e-01 7.70e+08  -1.0 7.36e+00  -0.8 5.15e-01 9.94e-02f  1
 109  3.7810589e+02 2.70e-01 7.59e+08  -1.0 3.81e+01  -1.2 1.45e-02 2.90e-02f  1
iter    objective    inf_pr   inf_du lg(mu)  ||d||  lg(rg) alpha_du alpha_pr  ls
 110  3.7767634e+02 1.02e-01 3.70e+08  -1.0 8.28e-01  -0.8 5.13e-01 6.21e-01f  1
 111  3.7760031e+02 6.17e-02 1.97e+08  -1.0 6.95e-01  -1.3 4.68e-01 3.97e-01f  1
 112  3.7743222e+02 2.80e-02 1.80e+08  -1.0 9.23e-01  -0.9 8.58e-02 5.46e-01f  1
 113  3.7742455e+02 2.33e-02 1.08e+08  -1.0 5.23e-01  -1.3 4.01e-01 1.69e-01f  2
 114  3.7741529e+02 1.46e-02 7.91e+07  -1.0 8.75e-02  -1.8 2.66e-01 3.71e-01f  2
 115  3.7740986e+02 7.81e-03 7.88e+07  -1.0 6.15e-02  -1.4 3.62e-03 4.67e-01f  2
 116  3.7740750e+02 1.22e-02 7.88e+07  -1.0 4.44e-01  -1.0 4.64e-05 3.89e-01f  2
 117  3.7740550e+02 2.37e-02 7.14e+07  -1.0 1.66e+00  -1.4 9.50e-02 9.50e-02s 20
 118  3.7740463e+02 3.22e-02 6.50e+07  -1.0 1.33e+00  -1.0 8.88e-02 8.88e-02s 20
 119  3.7740421e+02 4.20e-02 5.67e+07  -1.0 1.06e+00  -1.5 1.27e-01 1.27e-01s 20
iter    objective    inf_pr   inf_du lg(mu)  ||d||  lg(rg) alpha_du alpha_pr  ls
 120  3.7739817e+02 5.93e-02 3.84e+07  -1.0 7.36e-01  -2.0 3.22e-01 3.22e-01s 20
 121  3.7739810e+02 5.88e-02 3.82e+07  -1.0 8.08e-01    -  6.88e-03 6.88e-03s 20
 122  3.7739806e+02 5.86e-02 3.80e+07  -1.0 8.02e-01    -  3.94e-03 3.94e-03s 20
 123  3.7739803e+02 5.84e-02 3.79e+07  -1.0 7.97e-01    -  2.80e-03 2.80e-03s 20
Reallocating memory for MA57: lfact (13508280)
 124  3.7739992e+02 6.17e-02 1.47e+07  -1.0 7.66e-02    -  6.13e-01 6.13e-01s 20
 125  3.7739988e+02 6.16e-02 1.47e+07  -1.0 8.43e-01    -  1.88e-03 1.88e-03s 20
 126  3.7739388e+02 2.57e-02 4.14e+05  -1.0 5.06e-01    -  9.72e-01 9.72e-01s 20
 127  3.7739383e+02 2.29e-02 3.68e+05  -1.0 3.40e-01    -  1.11e-01 1.11e-01s 20
 128r 3.7739383e+02 2.29e-02 1.00e+03  -1.0 0.00e+00    -  0.00e+00 0.00e+00R  1
 129r 3.7970043e+02 2.84e-03 6.53e+02  -1.0 7.08e+00    -  9.06e-01 6.01e-03f  1
iter    objective    inf_pr   inf_du lg(mu)  ||d||  lg(rg) alpha_du alpha_pr  ls
 130  3.7970028e+02 2.84e-03 2.20e+05  -1.0 1.52e+01    -  9.50e-01 1.45e-05f  1
 131  3.7837188e+02 1.21e-03 2.45e+05  -1.0 3.10e-01    -  1.00e+00 5.75e-01h  1
 132  3.7782225e+02 5.25e-04 4.87e+05  -1.0 1.32e-01    -  1.00e+00 5.65e-01h  1
 133  3.7767558e+02 3.28e-04 2.41e+06  -1.0 3.51e-01  -2.4 1.00e+00 3.75e-01h  1
 134  3.7747174e+02 1.59e-05 2.90e+01  -1.0 3.58e-02  -0.2 1.00e+00 9.58e-01f  1
 135  2.3697745e+02 9.22e-06 1.18e+06  -3.8 3.08e-01  -0.7 7.96e-01 4.19e-01f  1
 136  2.2801377e+02 8.81e-06 7.71e+07  -3.8 1.73e-01  -0.3 2.63e-03 4.47e-02f  1
 137  2.2764525e+02 8.79e-06 7.71e+07  -3.8 8.70e-02   0.2 1.19e-01 2.25e-03f  1
 138  2.2434664e+02 8.64e-06 1.10e+08  -3.8 2.01e-01  -0.3 1.79e-01 1.67e-02f  1
 139  2.2354131e+02 8.60e-06 2.51e+08  -3.8 9.67e-02   0.1 1.80e-01 4.85e-03f  1
iter    objective    inf_pr   inf_du lg(mu)  ||d||  lg(rg) alpha_du alpha_pr  ls
 140  2.2354051e+02 8.60e-06 1.47e+08  -3.8 2.54e-01  -0.4 4.16e-01 4.00e-06f  2
 141r 2.2354051e+02 8.60e-06 1.00e+03  -3.8 0.00e+00  -0.8 0.00e+00 1.14e-07R  2
 142r 2.2400579e+02 4.38e-06 7.32e+02  -3.8 6.02e-03    -  2.77e-01 3.16e-01f  1
 143  2.2305076e+02 4.38e-06 3.26e+03  -3.8 4.06e-01    -  8.35e-01 1.32e-03f  1
 144  1.7762987e+02 3.48e-06 3.66e+03  -3.8 1.66e+00  -1.3 3.47e-01 2.06e-01f  1
 145  1.2386520e+02 2.41e-06 1.15e+04  -3.8 4.50e-01    -  7.38e-01 3.08e-01f  1
 146  1.1980998e+02 2.33e-06 7.01e+05  -3.8 4.17e-01    -  9.21e-01 3.16e-02f  1
 147  1.0991010e+02 2.16e-06 4.70e+06  -3.8 5.14e-01    -  8.44e-01 7.39e-02f  1
 148  1.0980519e+02 2.16e-06 3.10e+07  -3.8 5.34e-01    -  1.14e-02 8.13e-04f  1
 149  1.0848943e+02 2.13e-06 3.74e+07  -3.8 5.34e-01    -  1.23e-02 1.02e-02f  1
iter    objective    inf_pr   inf_du lg(mu)  ||d||  lg(rg) alpha_du alpha_pr  ls
 150  1.0837154e+02 2.13e-06 1.84e+08  -3.8 5.29e-01    -  1.21e-02 9.26e-04f  1
 151  1.0721990e+02 2.11e-06 5.96e+08  -3.8 5.29e-01    -  5.87e-02 9.07e-03f  1
Reallocating memory for MA57: lfact (21658357)
 152  1.0719544e+02 2.11e-06 5.91e+08  -3.8 5.27e-01    -  7.28e-03 1.94e-04f  1
 153  8.7925792e+01 2.33e-05 5.78e+08  -3.8 5.27e-01    -  2.34e-02 1.58e-01f  1
 154  8.7903323e+01 2.33e-05 8.57e+09  -3.8 4.52e-01    -  1.88e-02 2.23e-04f  1
 155  8.7807210e+01 2.32e-05 2.55e+10  -3.8 4.52e-01    -  1.47e-02 9.55e-04f  1
 156  8.7803083e+01 2.32e-05 3.55e+10  -3.8 4.52e-01    -  2.50e-02 4.10e-05f  1
 157  8.7697159e+01 2.33e-05 3.54e+10  -3.8 4.53e-01    -  2.88e-03 1.05e-03f  1
 158  8.7691245e+01 2.33e-05 5.37e+10  -3.8 4.53e-01    -  2.48e-02 5.88e-05f  1
 159  8.7690650e+01 2.33e-05 5.36e+10  -3.8 4.54e-01    -  1.00e-03 5.92e-06f  2
iter    objective    inf_pr   inf_du lg(mu)  ||d||  lg(rg) alpha_du alpha_pr  ls
 160  8.7690091e+01 2.33e-05 4.25e+10  -3.8 4.54e-01    -  2.06e-01 5.55e-06f  1
 161  6.3079330e+01 4.65e-05 4.15e+10  -3.8 4.62e-01    -  2.52e-02 2.54e-01f  1
 162  6.2346014e+01 4.69e-05 3.68e+10  -3.8 3.56e-01    -  1.13e-01 1.05e-02f  1
 163  6.2321079e+01 4.69e-05 3.76e+10  -3.8 3.56e-01    -  6.43e-04 3.61e-04f  1
 164  1.5847399e+01 8.65e-05 3.76e+10  -3.8 3.56e-01    -  3.19e-04 7.61e-01f  1
 165  1.5705812e+01 8.61e-05 2.39e+10  -3.8 1.25e-01    -  3.65e-01 9.94e-03f  1
 166  1.5452625e+01 8.54e-05 1.88e+10  -3.8 1.35e-01    -  2.14e-01 1.75e-02f  1
 167  1.5423679e+01 8.52e-05 1.84e+10  -3.8 1.39e-01    -  1.72e-03 2.01e-03f  1
 168  1.5422090e+01 8.52e-05 1.80e+10  -3.8 1.39e-01    -  2.26e-02 1.10e-04f  1
 169  1.4855069e+01 8.35e-05 1.78e+10  -3.8 1.39e-01    -  6.76e-03 3.95e-02f  1
iter    objective    inf_pr   inf_du lg(mu)  ||d||  lg(rg) alpha_du alpha_pr  ls
 170  1.3890821e+01 8.06e-05 1.31e+10  -3.8 1.35e-01    -  2.63e-01 7.05e-02f  1
 171  7.8968623e+00 6.02e-05 1.25e+10  -3.8 1.33e-01    -  4.56e-02 4.90e-01f  1
 172  3.4681609e+00 2.96e-05 1.24e+10  -3.8 8.00e-02    -  1.13e-02 7.57e-01f  1
 173  2.6278674e+00 2.99e-05 1.08e+10  -3.8 3.51e-02    -  1.33e-01 5.47e-01f  1
 174  2.4027072e+00 2.68e-05 8.84e+09  -3.8 2.39e-02    -  1.78e-01 2.98e-01f  1
 175  2.2002352e+00 2.20e-05 5.96e+09  -3.8 2.08e-02    -  3.26e-01 3.65e-01f  1
 176  2.0226758e+00 1.58e-05 3.12e+09  -3.8 1.80e-02    -  4.77e-01 4.69e-01f  1
 177  1.9040296e+00 9.90e-06 1.59e+09  -3.8 1.45e-02    -  4.89e-01 5.28e-01f  1
 178  1.9040162e+00 9.90e-06 2.09e+09  -3.8 9.90e-03    -  3.34e-04 1.13e-04H  1
 179  1.8403211e+00 6.36e-06 1.06e+09  -3.8 9.91e-03    -  4.95e-01 5.44e-01f  1
iter    objective    inf_pr   inf_du lg(mu)  ||d||  lg(rg) alpha_du alpha_pr  ls
 180  1.8259274e+00 5.19e-06 1.14e+03  -3.8 6.02e-03    -  1.00e+00 2.49e-01f  2
 181  1.7811520e+00 1.28e-06 3.81e-06  -3.8 5.32e-03    -  1.00e+00 1.00e+00h  1
 182  1.3176328e+00 1.79e-07 6.14e+01  -8.6 2.01e-02    -  9.90e-01 8.60e-01f  1
 183  1.2652845e+00 7.99e-08 2.62e+02  -8.6 1.11e-02    -  9.95e-01 5.54e-01f  1
 184  1.2397568e+00 3.98e-08 2.61e+02  -8.6 7.89e-03    -  1.00e+00 5.86e-01f  1
 185  1.2340905e+00 4.12e-08 4.05e+02  -8.6 4.76e-03    -  9.31e-01 3.12e-01f  1
 186  1.2288204e+00 4.18e-08 3.09e+02  -8.6 4.09e-03    -  8.12e-01 4.25e-01f  1
 187  1.2232564e+00 3.95e-08 5.74e+01  -8.6 2.81e-03    -  4.19e-01 7.96e-01h  1
 188  1.2222419e+00 3.94e-08 2.70e+02  -8.6 9.97e-04    -  2.88e-01 7.15e-01h  1
 189  1.2218934e+00 3.89e-08 5.47e+02  -8.6 5.11e-04    -  2.37e-01 8.59e-01f  1
iter    objective    inf_pr   inf_du lg(mu)  ||d||  lg(rg) alpha_du alpha_pr  ls
 190  1.2218440e+00 3.83e-08 8.42e+02  -8.6 2.35e-04    -  1.45e-01 8.40e-01f  1
 191  1.2218342e+00 3.76e-08 1.13e+03  -8.6 1.19e-04    -  1.77e-01 1.00e+00f  1
 192  1.2218341e+00 3.57e-08 1.37e+03  -8.6 6.31e-05    -  1.63e-01 1.00e+00h  1
 193  1.2218343e+00 5.65e-08 1.54e+03  -8.6 4.00e-05    -  1.17e-01 1.00e+00h  1
 194  1.2218345e+00 8.11e-08 1.76e+03  -8.6 2.61e-05    -  1.07e-01 8.94e-01h  1
 195  1.2218346e+00 5.63e-08 1.97e+03  -8.6 1.87e-05    -  1.22e-01 1.00e+00f  1
 196  1.2218342e+00 6.14e-08 2.15e+03  -8.6 1.30e-05    -  8.58e-02 8.09e-01h  1
 197  1.2218342e+00 7.53e-08 2.39e+03  -8.6 9.84e-06    -  9.35e-02 1.00e+00f  1
 198  1.2218340e+00 7.34e-08 2.54e+03  -8.6 6.79e-06    -  9.09e-02 8.63e-01h  1
 199  1.2218342e+00 8.08e-08 2.77e+03  -8.6 5.01e-06    -  7.93e-02 1.00e+00f  1
iter    objective    inf_pr   inf_du lg(mu)  ||d||  lg(rg) alpha_du alpha_pr  ls
 200  1.2218343e+00 9.08e-08 2.82e+03  -8.6 3.37e-06    -  1.08e-01 8.95e-01h  1
 201  1.2218350e+00 9.58e-08 3.05e+03  -8.6 4.98e-06    -  6.83e-02 1.00e+00f  1
 202  1.2218343e+00 9.91e-08 3.20e+03  -8.6 5.08e-06    -  9.23e-02 9.74e-01h  1
 203  1.2218337e+00 1.21e-07 3.39e+03  -8.6 6.73e-06    -  7.48e-02 1.00e+00f  1
 204  1.2218341e+00 8.81e-08 3.43e+03  -8.6 8.87e-07    -  1.13e-01 1.00e+00h  1
 205  1.2218341e+00 9.11e-08 3.51e+03  -8.6 2.22e-06    -  9.93e-02 1.00e+00h  1
 206  1.2218335e+00 1.01e-07 3.66e+03  -8.6 3.09e-06    -  7.86e-02 1.00e+00h  1
 207  1.2218333e+00 5.44e-08 3.47e+03  -8.6 3.04e-06    -  9.75e-02 4.67e-01h  1
 208  1.2218328e+00 9.07e-08 3.48e+03  -8.6 1.12e-06    -  1.12e-01 1.00e+00f  1
 209  1.2218334e+00 9.06e-08 3.63e+03  -8.6 4.42e-06    -  8.19e-02 1.00e+00h  1
iter    objective    inf_pr   inf_du lg(mu)  ||d||  lg(rg) alpha_du alpha_pr  ls
 210  1.2218335e+00 5.81e-08 3.37e+03  -8.6 2.50e-06    -  1.07e-01 3.73e-01h  1
 211  1.2218335e+00 4.52e-08 3.16e+03  -8.6 6.63e-06    -  8.22e-02 2.31e-01f  1
 212  1.2218334e+00 4.37e-08 3.17e+03  -8.6 6.16e-06    -  5.46e-02 4.18e-01f  1
 213  1.2218335e+00 4.46e-08 2.96e+03  -8.6 2.76e-06    -  9.97e-02 3.01e-01f  1
 214  1.2218335e+00 3.90e-08 2.92e+03  -8.6 2.52e-06    -  7.86e-02 4.62e-01f  1
 215  1.2218335e+00 3.51e-08 2.86e+03  -8.6 7.12e-07    -  7.85e-02 4.18e-01f  1
 216  1.2218335e+00 3.48e-08 2.93e+03  -8.6 1.53e-06    -  5.93e-02 5.45e-01f  1
 217  1.2218334e+00 3.43e-08 2.85e+03  -8.6 3.38e-06    -  9.72e-02 5.28e-01f  1
 218  1.2218333e+00 3.44e-08 2.86e+03  -8.6 7.91e-07    -  9.84e-02 7.06e-01f  1
 219  1.2218333e+00 3.84e-08 2.82e+03  -8.6 1.47e-06    -  1.23e-01 7.61e-01f  1
iter    objective    inf_pr   inf_du lg(mu)  ||d||  lg(rg) alpha_du alpha_pr  ls
 220  1.2218333e+00 3.43e-08 2.87e+03  -8.6 1.71e-06    -  7.68e-02 6.29e-01f  1
 221  1.2218333e+00 3.42e-08 2.77e+03  -8.6 1.89e-06    -  8.56e-02 3.73e-01f  1
 222  1.2218330e+00 4.87e-08 2.78e+03  -8.6 4.16e-06    -  9.42e-02 6.61e-01f  1
 223  1.2218329e+00 3.65e-08 2.78e+03  -8.6 2.71e-06    -  7.78e-02 5.34e-01f  1
 224  1.2218328e+00 5.42e-08 2.69e+03  -8.6 1.17e-06    -  1.44e-01 7.96e-01f  1
 225  1.2218331e+00 3.36e-08 2.76e+03  -8.6 3.72e-06    -  8.77e-02 7.36e-01f  1
 226  1.2218332e+00 3.30e-08 2.87e+03  -8.6 2.39e-06    -  1.09e-01 9.78e-01f  1
 227  1.2218333e+00 3.34e-08 3.03e+03  -8.6 1.74e-06    -  8.44e-02 9.38e-01f  1
 228  1.2218333e+00 3.34e-08 3.05e+03  -8.6 3.28e-07    -  1.30e-01 1.00e+00f  1
 229  1.2218331e+00 3.34e-08 3.02e+03  -8.6 2.21e-06    -  8.37e-02 5.80e-01h  1
iter    objective    inf_pr   inf_du lg(mu)  ||d||  lg(rg) alpha_du alpha_pr  ls
 230  1.2218329e+00 5.02e-08 3.05e+03  -8.6 1.76e-06    -  1.27e-01 1.00e+00f  1
 231  1.2218328e+00 3.67e-08 3.02e+03  -8.6 1.48e-06    -  1.36e-01 9.52e-01h  1
 232  1.2218329e+00 3.66e-08 3.08e+03  -8.6 2.56e-06    -  1.15e-01 1.00e+00f  1
 233  1.2218329e+00 3.33e-08 3.14e+03  -8.6 2.90e-06    -  1.14e-01 1.00e+00h  1
 234  1.2218328e+00 3.32e-08 2.89e+03  -8.6 1.13e-06    -  1.05e-01 2.79e-01h  1
 235  1.2218327e+00 5.00e-08 3.03e+03  -8.6 1.54e-06    -  9.71e-02 1.00e+00f  1
 236  1.2218326e+00 3.32e-08 2.76e+03  -8.6 4.73e-07    -  1.43e-01 4.88e-01h  1
 237  1.2218326e+00 3.50e-08 2.99e+03  -8.6 1.12e-06    -  7.74e-02 1.00e+00f  1
 238  1.2218326e+00 3.39e-08 3.10e+03  -8.6 8.24e-07    -  1.05e-01 1.00e+00h  1
 239  1.2218327e+00 3.40e-08 2.77e+03  -8.6 8.55e-07    -  1.79e-01 6.43e-01h  1
iter    objective    inf_pr   inf_du lg(mu)  ||d||  lg(rg) alpha_du alpha_pr  ls
 240  1.2218326e+00 3.40e-08 2.56e+03  -8.6 2.58e-07    -  9.21e-02 1.92e-01f  1
 241  1.2218326e+00 3.37e-08 2.71e+03  -8.6 7.57e-07    -  7.18e-02 7.70e-01f  1
 242  1.2218327e+00 3.38e-08 2.58e+03  -8.6 2.35e-07    -  1.06e-01 4.29e-01f  1
 243  1.2218327e+00 3.34e-08 2.80e+03  -8.6 1.16e-06    -  6.10e-02 8.76e-01f  1
 244  1.2218326e+00 3.34e-08 2.61e+03  -8.6 5.04e-07    -  1.49e-01 6.20e-01f  1
 245  1.2218326e+00 3.34e-08 2.64e+03  -8.6 4.28e-07    -  1.42e-01 1.00e+00f  1
 246  1.2218326e+00 3.31e-08 2.85e+03  -8.6 9.36e-07    -  8.52e-02 1.00e+00h  1
 247  1.2218326e+00 3.32e-08 2.69e+03  -8.6 6.76e-07    -  1.33e-01 6.01e-01h  1
 248  1.2218325e+00 3.31e-08 2.42e+03  -8.6 1.75e-06    -  1.13e-01 1.80e-01f  1
 249  1.2218323e+00 3.28e-08 2.62e+03  -8.6 2.66e-06    -  4.68e-02 7.44e-01f  1
iter    objective    inf_pr   inf_du lg(mu)  ||d||  lg(rg) alpha_du alpha_pr  ls
 250  1.2218323e+00 3.29e-08 2.38e+03  -8.6 1.05e-06    -  1.46e-01 4.31e-01f  1
 251  1.2218324e+00 3.30e-08 2.27e+03  -8.6 6.84e-07    -  1.11e-01 4.43e-01f  2
 252  1.2218324e+00 3.31e-08 2.44e+03  -8.6 7.55e-07    -  1.09e-01 1.00e+00h  1
 253  1.2218325e+00 3.32e-08 2.56e+03  -8.6 5.15e-07    -  1.20e-01 1.00e+00h  1
 254  1.2218325e+00 3.33e-08 2.54e+03  -8.6 4.68e-07    -  1.40e-01 8.67e-01h  1
 255  1.2218325e+00 3.33e-08 2.20e+03  -8.6 1.44e-06    -  1.44e-01 1.92e-01f  1
 256  1.2218324e+00 3.38e-08 2.44e+03  -8.6 1.60e-06    -  8.81e-02 9.94e-01f  1
 257  1.2218324e+00 3.37e-08 2.23e+03  -8.6 1.52e-06    -  1.17e-01 2.94e-01f  1
 258  1.2218323e+00 3.33e-08 2.38e+03  -8.6 1.40e-06    -  1.06e-01 9.23e-01f  1
 259  1.2218323e+00 3.34e-08 2.44e+03  -8.6 5.80e-07    -  7.82e-02 5.91e-01f  1
iter    objective    inf_pr   inf_du lg(mu)  ||d||  lg(rg) alpha_du alpha_pr  ls
 260  1.2218324e+00 3.34e-08 2.40e+03  -8.6 3.04e-07    -  1.77e-01 1.00e+00f  1
 261  1.2218324e+00 3.30e-08 2.36e+03  -8.6 1.63e-06    -  1.62e-01 9.04e-01h  1
 262  1.2218324e+00 3.32e-08 2.63e+03  -8.6 8.78e-07    -  6.99e-02 1.00e+00f  1
 263  1.2218324e+00 3.31e-08 2.13e+03  -8.6 8.28e-07    -  2.62e-01 6.64e-01h  1
 264  1.2218324e+00 3.34e-08 2.34e+03  -8.6 1.19e-06    -  1.01e-01 1.00e+00f  1
 265  1.2218324e+00 3.32e-08 2.17e+03  -8.6 1.10e-06    -  1.53e-01 5.71e-01h  1
 266  1.2218323e+00 3.32e-08 2.43e+03  -8.6 5.59e-07    -  7.53e-02 9.77e-01f  1
 267  1.2218323e+00 3.31e-08 2.42e+03  -8.6 1.19e-06    -  8.17e-02 4.70e-01f  1
 268  1.2218322e+00 3.35e-08 2.54e+03  -8.6 1.23e-06    -  1.19e-01 1.00e+00f  1
 269  1.2218322e+00 3.31e-08 2.21e+03  -8.6 1.17e-06    -  1.61e-01 3.28e-01h  1
iter    objective    inf_pr   inf_du lg(mu)  ||d||  lg(rg) alpha_du alpha_pr  ls
 270  1.2218322e+00 3.32e-08 2.49e+03  -8.6 3.34e-07    -  6.40e-02 9.54e-01f  1
 271  1.2218321e+00 3.32e-08 2.39e+03  -8.6 1.35e-06    -  1.04e-01 4.60e-01f  1
 272  1.2218319e+00 4.64e-08 2.46e+03  -8.6 2.44e-06    -  1.42e-01 1.00e+00f  1
 273  1.2218320e+00 3.32e-08 2.04e+03  -8.6 2.98e-06    -  2.21e-01 4.98e-01h  1
 274  1.2218321e+00 3.33e-08 1.88e+03  -8.6 1.59e-06    -  1.42e-01 4.12e-01f  2
 275  1.2218322e+00 3.34e-08 1.85e+03  -8.6 1.06e-06    -  2.13e-01 1.00e+00h  1
 276  1.2218322e+00 3.33e-08 2.17e+03  -8.6 4.48e-07    -  5.10e-02 9.23e-01h  1
 277  1.2218322e+00 3.33e-08 1.90e+03  -8.6 2.18e-07    -  2.11e-01 6.28e-01f  1
 278  1.2218322e+00 3.32e-08 2.16e+03  -8.6 2.29e-07    -  8.60e-02 9.90e-01f  1
 279  1.2218322e+00 3.36e-08 2.14e+03  -8.6 1.29e-06    -  1.82e-01 9.59e-01f  1
iter    objective    inf_pr   inf_du lg(mu)  ||d||  lg(rg) alpha_du alpha_pr  ls
 280  1.2218321e+00 3.36e-08 2.30e+03  -8.6 2.65e-07    -  1.22e-01 1.00e+00f  1
 281  1.2218321e+00 3.37e-08 2.48e+03  -8.6 7.33e-07    -  9.69e-02 9.40e-01h  1
 282  1.2218321e+00 3.37e-08 2.14e+03  -8.6 4.44e-07    -  1.99e-01 5.31e-01f  1
 283  1.2218320e+00 3.37e-08 2.38e+03  -8.6 7.73e-07    -  9.00e-02 1.00e+00f  1
 284  1.2218321e+00 3.35e-08 2.42e+03  -8.6 4.48e-07    -  1.33e-01 8.88e-01h  1
 285  1.2218321e+00 3.35e-08 1.83e+03  -8.6 3.06e-07    -  2.84e-01 4.97e-01f  1
 286  1.2218321e+00 3.34e-08 1.98e+03  -8.6 3.10e-07    -  9.37e-02 7.60e-01f  1
 287  1.2218321e+00 3.34e-08 1.95e+03  -8.6 2.70e-07    -  1.19e-01 5.66e-01f  1
 288  1.2218320e+00 3.37e-08 1.98e+03  -8.6 9.88e-07    -  1.86e-01 1.00e+00f  1
 289  1.2218321e+00 3.34e-08 1.20e+03  -8.6 1.45e-06    -  4.57e-01 7.31e-01h  1
iter    objective    inf_pr   inf_du lg(mu)  ||d||  lg(rg) alpha_du alpha_pr  ls
 290  1.2218320e+00 3.34e-08 1.34e+03  -8.6 4.87e-08    -  1.48e-01 8.20e-01f  1
 291  1.2218321e+00 3.34e-08 1.54e+03  -8.6 2.24e-07    -  1.17e-01 8.68e-01f  1
 292  1.2218321e+00 3.35e-08 1.70e+03  -8.6 1.16e-07    -  1.19e-01 8.50e-01f  1
 293  1.2218321e+00 3.35e-08 1.59e+03  -8.6 3.88e-07    -  1.69e-01 5.43e-01f  1
 294  1.2218321e+00 3.35e-08 1.59e+03  -8.6 5.30e-08    -  1.92e-01 8.39e-01f  1
 295  1.2218321e+00 3.36e-08 1.72e+03  -8.6 3.56e-07    -  1.25e-01 8.16e-01f  1
 296  1.2218321e+00 3.36e-08 1.87e+03  -8.6 5.67e-07    -  5.50e-02 5.72e-01f  1
 297  1.2218320e+00 3.35e-08 1.78e+03  -8.6 1.23e-06    -  2.23e-01 8.99e-01f  1
 298  1.2218320e+00 3.35e-08 1.69e+03  -8.6 1.22e-06    -  9.51e-02 2.66e-01f  2
 299  1.2218321e+00 3.35e-08 1.85e+03  -8.6 9.45e-07    -  1.42e-01 1.00e+00h  1
iter    objective    inf_pr   inf_du lg(mu)  ||d||  lg(rg) alpha_du alpha_pr  ls
 300  1.2218321e+00 3.34e-08 1.67e+03  -8.6 4.77e-07    -  1.93e-01 5.54e-01h  1
 301  1.2218321e+00 3.34e-08 1.41e+03  -8.6 1.42e-07    -  2.64e-01 6.62e-01f  1
 302  1.2218320e+00 3.36e-08 1.34e+03  -8.6 1.16e-06    -  1.94e-01 6.06e-01f  1
 303  1.2218320e+00 3.36e-08 1.34e+03  -8.6 7.73e-07    -  2.52e-01 9.63e-01f  1
 304  1.2218320e+00 3.36e-08 1.43e+03  -8.6 6.92e-07    -  2.13e-01 1.00e+00f  1
 305  1.2218318e+00 3.39e-08 1.86e+03  -8.6 1.36e-06    -  1.93e-02 9.92e-01h  1
 306  1.2218319e+00 3.38e-08 1.60e+03  -8.6 1.04e-06    -  2.14e-01 5.00e-01f  2
 307  1.2218319e+00 3.36e-08 1.71e+03  -8.6 6.26e-07    -  1.77e-01 1.00e+00h  1
 308  1.2218319e+00 3.36e-08 6.41e+02  -8.6 2.39e-07    -  6.10e-01 5.56e-01h  1
 309  1.2218320e+00 3.36e-08 3.16e+01  -8.6 1.82e-07    -  9.72e-01 1.00e+00f  1
iter    objective    inf_pr   inf_du lg(mu)  ||d||  lg(rg) alpha_du alpha_pr  ls
 310  1.2218320e+00 3.36e-08 4.80e+01  -8.6 2.08e-08    -  9.05e-01 1.00e+00h  1
 311  1.2218319e+00 3.37e-08 4.16e+01  -8.6 1.05e-07    -  9.21e-01 1.00e+00h  1
 312  1.2218319e+00 3.37e-08 3.81e-06  -8.6 9.96e-08    -  1.00e+00 1.00e+00h  1
 313  1.2218320e+00 3.37e-08 2.40e+02  -8.6 7.51e-08    -  4.96e-01 1.00e+00h  1
 314  1.2218320e+00 3.38e-08 2.78e+02  -8.6 4.96e-07    -  4.86e-01 8.10e-01h  1
 315  1.2218319e+00 3.38e-08 1.22e+02  -8.6 2.39e-07    -  8.39e-01 1.00e+00f  1
 316  1.2218319e+00 3.38e-08 1.91e-06  -8.6 1.30e-07    -  1.00e+00 1.00e+00h  1
 317  1.2218319e+00 3.38e-08 3.81e-06  -8.6 1.73e-08    -  1.00e+00 1.00e+00h  1
 318  1.2218319e+00 3.38e-08 3.81e-06  -8.6 1.79e-08    -  1.00e+00 1.00e+00h  1
 319  1.2218319e+00 3.38e-08 4.27e+02  -8.6 2.99e-08    -  1.05e-01 1.00e+00h  1
iter    objective    inf_pr   inf_du lg(mu)  ||d||  lg(rg) alpha_du alpha_pr  ls
 320  1.2218319e+00 3.38e-08 4.79e+02  -8.6 1.57e-07    -  4.70e-01 1.00e+00h  1
 321  1.2218319e+00 3.38e-08 6.15e+02  -8.6 6.53e-08    -  3.57e-01 1.00e+00h  1
 322  1.2218319e+00 3.39e-08 9.47e+02  -8.6 5.40e-07    -  1.34e-01 1.00e+00h  1
 323  1.2218318e+00 3.40e-08 1.16e+03  -8.6 9.74e-07    -  1.89e-01 1.00e+00h  1
 324  1.2218319e+00 3.39e-08 5.70e+02  -8.6 5.07e-07    -  6.52e-01 1.00e+00h  1
 325  1.2218319e+00 3.40e-08 8.32e+02  -8.6 1.35e-07    -  2.08e-01 1.00e+00h  1
 326  1.2218319e+00 3.39e-08 1.08e+02  -8.6 1.96e-07    -  9.17e-01 1.00e+00h  1
 327  1.2218319e+00 3.39e-08 2.78e+01  -8.6 4.72e-07    -  9.53e-01 1.00e+00h  1
 328  1.2218319e+00 3.39e-08 6.33e+01  -8.6 3.43e-07    -  8.75e-01 1.00e+00h  1
 329  1.2218319e+00 3.39e-08 1.91e-06  -8.6 9.89e-08    -  1.00e+00 1.00e+00h  1
iter    objective    inf_pr   inf_du lg(mu)  ||d||  lg(rg) alpha_du alpha_pr  ls
 330  1.2218319e+00 3.39e-08 4.64e+02  -8.6 5.55e-08    -  3.33e-02 1.00e+00h  1
 331  1.2218318e+00 3.39e-08 5.16e+02  -8.6 1.57e-07    -  4.53e-01 1.00e+00h  1
 332  1.2218319e+00 3.41e-08 1.54e+02  -8.6 6.77e-07    -  8.45e-01 1.00e+00h  1
 333  1.2218319e+00 3.41e-08 4.36e+02  -8.6 4.16e-07    -  1.00e+00 9.23e-02h  1
 334  1.2218319e+00 3.40e-08 1.91e-06  -8.6 3.87e-07    -  1.00e+00 1.00e+00f  1
 335  1.2218319e+00 3.40e-08 3.81e-06  -8.6 1.75e-08    -  1.00e+00 1.00e+00h  1
 336  1.2218319e+00 3.40e-08 3.81e-06  -8.6 1.82e-08    -  1.00e+00 1.00e+00h  1
 337  1.2218319e+00 3.40e-08 1.78e+02  -8.6 4.50e-09    -  6.30e-01 1.00e+00h  1
 338  1.2218318e+00 3.41e-08 5.02e+02  -8.6 2.58e-07    -  2.39e-01 1.00e+00h  1
 339  1.2218318e+00 3.41e-08 7.79e+02  -8.6 2.41e-07    -  2.08e-01 1.00e+00h  1
iter    objective    inf_pr   inf_du lg(mu)  ||d||  lg(rg) alpha_du alpha_pr  ls
 340  1.2218317e+00 3.41e-08 6.61e+02  -8.6 7.48e-07    -  4.76e-01 1.00e+00h  1
 341  1.2218318e+00 3.41e-08 3.81e-06  -8.6 5.53e-07    -  1.00e+00 1.00e+00h  1
 342  1.2218318e+00 3.41e-08 2.38e-07  -8.6 1.15e-08    -  1.00e+00 1.00e+00h  1
 343  1.2218318e+00 3.41e-08 4.33e+02  -8.6 2.91e-08    -  1.01e-01 1.00e+00h  1
 344  1.2218318e+00 3.41e-08 3.41e+02  -8.6 2.13e-07    -  6.28e-01 1.00e+00h  1
 345  1.2218318e+00 3.40e-08 2.94e+02  -8.6 9.30e-08    -  6.42e-01 1.00e+00h  1
 346  1.2218317e+00 3.41e-08 1.91e-06  -8.6 3.48e-07    -  1.00e+00 1.00e+00h  1
 347  1.2218318e+00 3.41e-08 3.81e-06  -8.6 2.08e-07    -  1.00e+00 1.00e+00h  1
 348  1.2218318e+00 3.40e-08 3.89e+02  -8.6 1.52e-08    -  1.91e-01 1.00e+00h  1
 349  1.2218317e+00 3.40e-08 4.55e+02  -8.6 1.02e-07    -  4.77e-01 1.00e+00h  1
iter    objective    inf_pr   inf_du lg(mu)  ||d||  lg(rg) alpha_du alpha_pr  ls
 350  1.2218318e+00 3.40e-08 3.17e+02  -8.6 3.61e-08    -  6.62e-01 1.00e+00h  1
 351  1.2218318e+00 3.40e-08 4.06e+02  -8.6 6.03e-08    -  4.90e-01 1.00e+00h  1
 352  1.2218317e+00 3.40e-08 1.91e-06  -8.6 3.97e-08    -  1.00e+00 1.00e+00h  1
 353  1.2218317e+00 3.40e-08 1.70e+02  -8.6 2.44e-08    -  6.46e-01 1.00e+00h  1
 354  1.2218317e+00 3.40e-08 3.80e+02  -8.6 1.32e-07    -  4.17e-01 1.00e+00h  1
 355  1.2218317e+00 3.40e-08 4.63e+02  -8.6 7.46e-08    -  4.62e-01 1.00e+00h  1
 356  1.2218317e+00 3.40e-08 1.04e+02  -8.6 1.82e-08    -  8.90e-01 1.00e+00h  1
 357  1.2218317e+00 3.40e-08 3.76e+02  -8.6 2.02e-08    -  2.05e-01 8.16e-01h  1
 358  1.2218317e+00 3.40e-08 5.35e+01  -8.6 7.94e-08    -  4.47e-01 1.25e-01f  2
 359  1.2218317e+00 3.40e-08 1.91e-06  -8.6 4.17e-07    -  1.00e+00 1.00e+00h  1
iter    objective    inf_pr   inf_du lg(mu)  ||d||  lg(rg) alpha_du alpha_pr  ls
 360  1.2218317e+00 3.40e-08 3.81e-06  -8.6 2.18e-07    -  1.00e+00 1.00e+00h  1
 361  1.2218317e+00 3.40e-08 3.81e-06  -8.6 6.98e-09    -  1.00e+00 1.00e+00h  1
 362  1.2218317e+00 3.40e-08 1.91e-06  -8.6 6.35e-08    -  1.00e+00 1.00e+00h  1
 363  1.2218317e+00 3.40e-08 6.95e+01  -8.6 7.47e-09    -  8.56e-01 1.00e+00h  1
 364  1.2218317e+00 3.40e-08 3.81e-06  -8.6 8.64e-08    -  1.00e+00 1.00e+00h  1
 365  1.2218317e+00 3.40e-08 1.91e-06  -8.6 4.52e-08    -  1.00e+00 1.00e+00h  1
 366  1.2218317e+00 3.40e-08 1.91e-06  -8.6 1.15e-09    -  1.00e+00 1.00e+00h  1
 367  1.2218317e+00 3.40e-08 3.81e-06  -8.6 1.06e-08    -  1.00e+00 1.00e+00h  1

Number of Iterations....: 367

                                   (scaled)                 (unscaled)
Objective...............:   1.2218317081090753e+00    1.2218317081090753e+00
Dual infeasibility......:   3.8146972656250000e-06    3.8146972656250000e-06
Constraint violation....:   3.4032833580648696e-08    3.4032833580648696e-08
Complementarity.........:   2.5810355990858656e-09    2.5810355990858656e-09
Overall NLP error.......:   3.4032833580648696e-08    3.8146972656250000e-06


Number of objective function evaluations             = 613
Number of objective gradient evaluations             = 368
Number of equality constraint evaluations            = 613
Number of inequality constraint evaluations          = 0
Number of equality constraint Jacobian evaluations   = 370
Number of inequality constraint Jacobian evaluations = 0
Number of Lagrangian Hessian evaluations             = 368
Total CPU secs in IPOPT (w/o function evaluations)   =    152.517
Total CPU secs in NLP function evaluations           =      5.693

EXIT: Solved To Acceptable Level.

************************ CUTEst statistics ************************


 Package used            :  IPOPT
 Problem                 :  A5NSDSIL  
 # variables             =           60012
 # constraints           =           20004
 # objective functions   =        0.9820000E+03
 # objective gradients   =        0.3690000E+03
 # objective Hessians    =        0.3670000E+03
 # Hessian-vector prdct  =        0.0000000E+00
 # constraints functions =        0.9850000E+03
 # constraints gradients =        0.3720000E+03
 # constraints Hessians  =        0.3670000E+03
 Exit code               =               1
 Final f                 =   0.1221832E+01
 Set up time             =            0.39 seconds
 Solve time              =          350.85 seconds


******************************************************************

System Time =      88.9800033569 s.
